c WARNING: for repeatability, setting FPU to use double precision
d VARIABLES            120278       
d CONSTRAINTS          534669       
c ============================[ Problem Statistics ]=============================
c |                                                                             |
c |  Number of variables:        120278                                         |
c |  Number of clauses:          534669                                         |
c |  Parse time:                   0.08 s                                       |
c |                                                                             |
c ============================[ Search Statistics ]==============================
c | Conflicts |          ORIGINAL         |          LEARNT          | Progress |
c |           |    Vars  Clauses Literals |    Limit  Clauses Lit/Cl |          |
c ===============================================================================
c |       100 |  101988   482585  1169688 |   176947      100     19 | 15.206 % |
c |       250 |  101988   482585  1169688 |   194642      250     25 | 15.206 % |
c |       475 |  101988   482585  1169688 |   214106      475     46 | 15.206 % |
c |       812 |  101988   482585  1169688 |   235517      812     88 | 15.206 % |
c |      1318 |  101988   482585  1169688 |   259069     1318    121 | 15.206 % |
c |      2077 |  101988   482585  1169688 |   284976     2077    107 | 15.206 % |
c |      3216 |  101988   482585  1169688 |   313473     3216    142 | 15.206 % |
c |      4924 |  101988   482585  1169688 |   344821     4924    121 | 15.206 % |
c |      7486 |  101988   482585  1169688 |   379303     7486    146 | 15.206 % |
c |     11330 |  101988   482585  1169688 |   417233    11330    150 | 15.206 % |
c |     17096 |  101988   482585  1169688 |   458957    17096    156 | 15.206 % |
c |     25745 |  101988   482585  1169688 |   504852    25745    161 | 15.206 % |
c |     38719 |  101988   482585  1169688 |   555338    38719    163 | 15.206 % |
c |     58180 |  101988   482585  1169688 |   610871    58180    162 | 15.206 % |
c |     87372 |  101988   482585  1169688 |   671959    87372    170 | 15.206 % |
c ===============================================================================
c restarts              : 321
c conflicts             : 122137         (2222 /sec)
c decisions             : 533576         (0.00 % random) (9707 /sec)
c propagations          : 239150801      (4350772 /sec)
c conflict literals     : 21812104       (19.22 % deleted)
d RESTARTS             321
d FAILURES             122137       
d NODES                533576       
d BACKTRACKS           533576       
d PROPAGATIONS         239150801    
d NOGOODSIZE           178.59 
d MEMORY               169.00 
d TIME                 54.9674 

s SATISFIABLE
